Traveling Salesman Problem/TSP_generados/Aleatorio1621103292_8.tsp
NAME: Aleatorio1621103292_8.tsp
COMMENT: Randomly generated scenario
TYPE: TSP
DIMENSION: 8
EDGE_WEIGHT_TYPE: ATT
NODE_COORD_SECTION
1 22.02 37.64
2 20.72 13.59
3 27.03 8.6
4 15.1 41.46
5 13.14 6.25
6 20.69 21.35
7 13.98 20.46
8 31.1 15.15
