Traveling Salesman Problem/TSP_generados/Aleatorio1621103292_8.opt.tour
NAME: Aleatorio1621103292_8.opt.tour
COMMENT: Optimal solution for Aleatorio1621103292_8 (97.93719458952629)
TYPE: TOUR
DIMENSION: 8
TOUR_SECTION
1 4 7 5 2 3 8 6
-1
EOF
